data;
param n:=100;
param w:=1 -160 2 -263 3 263 4 -220 5 286 6 -5 7 -433 8 70 9 20 10 464 11 -41 12 -264 13 -315 14 -195 15 52 16 -142 17 331 18 -149 19 423 20 427 21 -230 22 -373 23 181 24 396 25 -504 26 -168 27 18 28 209 29 475 30 477 31 -390 32 314 33 452 34 123 35 128 36 418 37 343 38 -457 39 305 40 407 41 213 42 405 43 -160 44 -481 45 -31 46 -219 47 336 48 460 49 -210 50 -240 51 340 52 -48 53 169 54 342 55 -113 56 250 57 -43 58 121 59 237 60 -431 61 27 62 246 63 -155 64 -424 65 -271 66 -202 67 50 68 219 69 -227 70 -32 71 245 72 -473 73 -383 74 -199 75 -227 76 -305 77 342 78 -399 79 440 80 104 81 -275 82 199 83 267 84 463 85 -118 86 -364 87 -183 88 -227 89 80 90 14 91 460 92 171 93 -269 94 66 95 168 96 -423 97 -427 98 -483 99 -357 100 -308;
